c description: Perfect Matching Principle on 
c generator: CNFgen (0.9.0)
c copyright: (C) 2012-2020 Massimo Lauria <massimo.lauria@uniroma1.it>
c url: https://massimolauria.net/cnfgen
c
p cnf 160 1279
-1 -2 0
-1 -3 0
-1 -4 0
-1 -5 0
-1 -6 0
-2 -3 0
-2 -4 0
-2 -5 0
-2 -6 0
-3 -4 0
-3 -5 0
-3 -6 0
-4 -5 0
-4 -6 0
-5 -6 0
1 2 3 4 5 6 0
-7 -8 0
-7 -9 0
-7 -10 0
-7 -11 0
-8 -9 0
-8 -10 0
-8 -11 0
-9 -10 0
-9 -11 0
-10 -11 0
7 8 9 10 11 0
-12 -13 0
-12 -14 0
-12 -15 0
-12 -16 0
-12 -17 0
-12 -18 0
-12 -19 0
-12 -20 0
-13 -14 0
-13 -15 0
-13 -16 0
-13 -17 0
-13 -18 0
-13 -19 0
-13 -20 0
-14 -15 0
-14 -16 0
-14 -17 0
-14 -18 0
-14 -19 0
-14 -20 0
-15 -16 0
-15 -17 0
-15 -18 0
-15 -19 0
-15 -20 0
-16 -17 0
-16 -18 0
-16 -19 0
-16 -20 0
-17 -18 0
-17 -19 0
-17 -20 0
-18 -19 0
-18 -20 0
-19 -20 0
12 13 14 15 16 17 18 19 20 0
-21 -22 0
-21 -23 0
-21 -24 0
-22 -23 0
-22 -24 0
-23 -24 0
21 22 23 24 0
-21 -25 0
-21 -26 0
-21 -27 0
-21 -28 0
-21 -29 0
-21 -30 0
-21 -31 0
-21 -32 0
-25 -26 0
-25 -27 0
-25 -28 0
-25 -29 0
-25 -30 0
-25 -31 0
-25 -32 0
-26 -27 0
-26 -28 0
-26 -29 0
-26 -30 0
-26 -31 0
-26 -32 0
-27 -28 0
-27 -29 0
-27 -30 0
-27 -31 0
-27 -32 0
-28 -29 0
-28 -30 0
-28 -31 0
-28 -32 0
-29 -30 0
-29 -31 0
-29 -32 0
-30 -31 0
-30 -32 0
-31 -32 0
21 25 26 27 28 29 30 31 32 0
-7 -12 0
-7 -33 0
-7 -34 0
-7 -35 0
-7 -36 0
-7 -37 0
-12 -33 0
-12 -34 0
-12 -35 0
-12 -36 0
-12 -37 0
-33 -34 0
-33 -35 0
-33 -36 0
-33 -37 0
-34 -35 0
-34 -36 0
-34 -37 0
-35 -36 0
-35 -37 0
-36 -37 0
7 12 33 34 35 36 37 0
-1 -8 0
-1 -38 0
-1 -39 0
-1 -40 0
-8 -38 0
-8 -39 0
-8 -40 0
-38 -39 0
-38 -40 0
-39 -40 0
1 8 38 39 40 0
-33 -41 0
-33 -42 0
-33 -43 0
-33 -44 0
-33 -45 0
-33 -46 0
-41 -42 0
-41 -43 0
-41 -44 0
-41 -45 0
-41 -46 0
-42 -43 0
-42 -44 0
-42 -45 0
-42 -46 0
-43 -44 0
-43 -45 0
-43 -46 0
-44 -45 0
-44 -46 0
-45 -46 0
33 41 42 43 44 45 46 0
-47 -48 0
-47 -49 0
-47 -50 0
-47 -51 0
-47 -52 0
-47 -53 0
-47 -54 0
-47 -55 0
-47 -56 0
-47 -57 0
-48 -49 0
-48 -50 0
-48 -51 0
-48 -52 0
-48 -53 0
-48 -54 0
-48 -55 0
-48 -56 0
-48 -57 0
-49 -50 0
-49 -51 0
-49 -52 0
-49 -53 0
-49 -54 0
-49 -55 0
-49 -56 0
-49 -57 0
-50 -51 0
-50 -52 0
-50 -53 0
-50 -54 0
-50 -55 0
-50 -56 0
-50 -57 0
-51 -52 0
-51 -53 0
-51 -54 0
-51 -55 0
-51 -56 0
-51 -57 0
-52 -53 0
-52 -54 0
-52 -55 0
-52 -56 0
-52 -57 0
-53 -54 0
-53 -55 0
-53 -56 0
-53 -57 0
-54 -55 0
-54 -56 0
-54 -57 0
-55 -56 0
-55 -57 0
-56 -57 0
47 48 49 50 51 52 53 54 55 56 57 0
-34 -47 0
-34 -58 0
-34 -59 0
-34 -60 0
-34 -61 0
-34 -62 0
-34 -63 0
-34 -64 0
-34 -65 0
-47 -58 0
-47 -59 0
-47 -60 0
-47 -61 0
-47 -62 0
-47 -63 0
-47 -64 0
-47 -65 0
-58 -59 0
-58 -60 0
-58 -61 0
-58 -62 0
-58 -63 0
-58 -64 0
-58 -65 0
-59 -60 0
-59 -61 0
-59 -62 0
-59 -63 0
-59 -64 0
-59 -65 0
-60 -61 0
-60 -62 0
-60 -63 0
-60 -64 0
-60 -65 0
-61 -62 0
-61 -63 0
-61 -64 0
-61 -65 0
-62 -63 0
-62 -64 0
-62 -65 0
-63 -64 0
-63 -65 0
-64 -65 0
34 47 58 59 60 61 62 63 64 65 0
-9 -35 0
-9 -66 0
-9 -67 0
-9 -68 0
-9 -69 0
-35 -66 0
-35 -67 0
-35 -68 0
-35 -69 0
-66 -67 0
-66 -68 0
-66 -69 0
-67 -68 0
-67 -69 0
-68 -69 0
9 35 66 67 68 69 0
-2 -58 0
-2 -70 0
-2 -71 0
-2 -72 0
-2 -73 0
-2 -74 0
-58 -70 0
-58 -71 0
-58 -72 0
-58 -73 0
-58 -74 0
-70 -71 0
-70 -72 0
-70 -73 0
-70 -74 0
-71 -72 0
-71 -73 0
-71 -74 0
-72 -73 0
-72 -74 0
-73 -74 0
2 58 70 71 72 73 74 0
-75 -76 0
-75 -77 0
-75 -78 0
-75 -79 0
-75 -80 0
-76 -77 0
-76 -78 0
-76 -79 0
-76 -80 0
-77 -78 0
-77 -79 0
-77 -80 0
-78 -79 0
-78 -80 0
-79 -80 0
75 76 77 78 79 80 0
-25 -48 0
-25 -81 0
-25 -82 0
-25 -83 0
-25 -84 0
-25 -85 0
-25 -86 0
-25 -87 0
-48 -81 0
-48 -82 0
-48 -83 0
-48 -84 0
-48 -85 0
-48 -86 0
-48 -87 0
-81 -82 0
-81 -83 0
-81 -84 0
-81 -85 0
-81 -86 0
-81 -87 0
-82 -83 0
-82 -84 0
-82 -85 0
-82 -86 0
-82 -87 0
-83 -84 0
-83 -85 0
-83 -86 0
-83 -87 0
-84 -85 0
-84 -86 0
-84 -87 0
-85 -86 0
-85 -87 0
-86 -87 0
25 48 81 82 83 84 85 86 87 0
-3 -49 0
-3 -88 0
-3 -89 0
-3 -90 0
-3 -91 0
-3 -92 0
-3 -93 0
-3 -94 0
-3 -95 0
-49 -88 0
-49 -89 0
-49 -90 0
-49 -91 0
-49 -92 0
-49 -93 0
-49 -94 0
-49 -95 0
-88 -89 0
-88 -90 0
-88 -91 0
-88 -92 0
-88 -93 0
-88 -94 0
-88 -95 0
-89 -90 0
-89 -91 0
-89 -92 0
-89 -93 0
-89 -94 0
-89 -95 0
-90 -91 0
-90 -92 0
-90 -93 0
-90 -94 0
-90 -95 0
-91 -92 0
-91 -93 0
-91 -94 0
-91 -95 0
-92 -93 0
-92 -94 0
-92 -95 0
-93 -94 0
-93 -95 0
-94 -95 0
3 49 88 89 90 91 92 93 94 95 0
-22 -38 0
-22 -41 0
-22 -50 0
-22 -70 0
-22 -96 0
-22 -97 0
-22 -98 0
-22 -99 0
-22 -100 0
-38 -41 0
-38 -50 0
-38 -70 0
-38 -96 0
-38 -97 0
-38 -98 0
-38 -99 0
-38 -100 0
-41 -50 0
-41 -70 0
-41 -96 0
-41 -97 0
-41 -98 0
-41 -99 0
-41 -100 0
-50 -70 0
-50 -96 0
-50 -97 0
-50 -98 0
-50 -99 0
-50 -100 0
-70 -96 0
-70 -97 0
-70 -98 0
-70 -99 0
-70 -100 0
-96 -97 0
-96 -98 0
-96 -99 0
-96 -100 0
-97 -98 0
-97 -99 0
-97 -100 0
-98 -99 0
-98 -100 0
-99 -100 0
22 38 41 50 70 96 97 98 99 100 0
-4 -26 0
-4 -51 0
-4 -59 0
-4 -71 0
-4 -81 0
-4 -96 0
-4 -101 0
-4 -102 0
-4 -103 0
-4 -104 0
-4 -105 0
-4 -106 0
-4 -107 0
-4 -108 0
-26 -51 0
-26 -59 0
-26 -71 0
-26 -81 0
-26 -96 0
-26 -101 0
-26 -102 0
-26 -103 0
-26 -104 0
-26 -105 0
-26 -106 0
-26 -107 0
-26 -108 0
-51 -59 0
-51 -71 0
-51 -81 0
-51 -96 0
-51 -101 0
-51 -102 0
-51 -103 0
-51 -104 0
-51 -105 0
-51 -106 0
-51 -107 0
-51 -108 0
-59 -71 0
-59 -81 0
-59 -96 0
-59 -101 0
-59 -102 0
-59 -103 0
-59 -104 0
-59 -105 0
-59 -106 0
-59 -107 0
-59 -108 0
-71 -81 0
-71 -96 0
-71 -101 0
-71 -102 0
-71 -103 0
-71 -104 0
-71 -105 0
-71 -106 0
-71 -107 0
-71 -108 0
-81 -96 0
-81 -101 0
-81 -102 0
-81 -103 0
-81 -104 0
-81 -105 0
-81 -106 0
-81 -107 0
-81 -108 0
-96 -101 0
-96 -102 0
-96 -103 0
-96 -104 0
-96 -105 0
-96 -106 0
-96 -107 0
-96 -108 0
-101 -102 0
-101 -103 0
-101 -104 0
-101 -105 0
-101 -106 0
-101 -107 0
-101 -108 0
-102 -103 0
-102 -104 0
-102 -105 0
-102 -106 0
-102 -107 0
-102 -108 0
-103 -104 0
-103 -105 0
-103 -106 0
-103 -107 0
-103 -108 0
-104 -105 0
-104 -106 0
-104 -107 0
-104 -108 0
-105 -106 0
-105 -107 0
-105 -108 0
-106 -107 0
-106 -108 0
-107 -108 0
4 26 51 59 71 81 96 101 102 103 104 105 106 107 108 0
-60 -82 0
-60 -88 0
-60 -109 0
-60 -110 0
-60 -111 0
-60 -112 0
-60 -113 0
-82 -88 0
-82 -109 0
-82 -110 0
-82 -111 0
-82 -112 0
-82 -113 0
-88 -109 0
-88 -110 0
-88 -111 0
-88 -112 0
-88 -113 0
-109 -110 0
-109 -111 0
-109 -112 0
-109 -113 0
-110 -111 0
-110 -112 0
-110 -113 0
-111 -112 0
-111 -113 0
-112 -113 0
60 82 88 109 110 111 112 113 0
-5 -39 0
-5 -66 0
-5 -89 0
-5 -114 0
-5 -115 0
-5 -116 0
-39 -66 0
-39 -89 0
-39 -114 0
-39 -115 0
-39 -116 0
-66 -89 0
-66 -114 0
-66 -115 0
-66 -116 0
-89 -114 0
-89 -115 0
-89 -116 0
-114 -115 0
-114 -116 0
-115 -116 0
5 39 66 89 114 115 116 0
-13 -83 0
-13 -117 0
-13 -118 0
-83 -117 0
-83 -118 0
-117 -118 0
13 83 117 118 0
-52 -61 0
-52 -84 0
-52 -90 0
-52 -119 0
-52 -120 0
-52 -121 0
-52 -122 0
-61 -84 0
-61 -90 0
-61 -119 0
-61 -120 0
-61 -121 0
-61 -122 0
-84 -90 0
-84 -119 0
-84 -120 0
-84 -121 0
-84 -122 0
-90 -119 0
-90 -120 0
-90 -121 0
-90 -122 0
-119 -120 0
-119 -121 0
-119 -122 0
-120 -121 0
-120 -122 0
-121 -122 0
52 61 84 90 119 120 121 122 0
-14 -62 0
-14 -72 0
-14 -119 0
-14 -123 0
-14 -124 0
-14 -125 0
-14 -126 0
-14 -127 0
-62 -72 0
-62 -119 0
-62 -123 0
-62 -124 0
-62 -125 0
-62 -126 0
-62 -127 0
-72 -119 0
-72 -123 0
-72 -124 0
-72 -125 0
-72 -126 0
-72 -127 0
-119 -123 0
-119 -124 0
-119 -125 0
-119 -126 0
-119 -127 0
-123 -124 0
-123 -125 0
-123 -126 0
-123 -127 0
-124 -125 0
-124 -126 0
-124 -127 0
-125 -126 0
-125 -127 0
-126 -127 0
14 62 72 119 123 124 125 126 127 0
-36 -63 0
-36 -128 0
-36 -129 0
-36 -130 0
-36 -131 0
-63 -128 0
-63 -129 0
-63 -130 0
-63 -131 0
-128 -129 0
-128 -130 0
-128 -131 0
-129 -130 0
-129 -131 0
-130 -131 0
36 63 128 129 130 131 0
-23 -27 0
-23 -42 0
-23 -75 0
-23 -91 0
-23 -101 0
-23 -128 0
-23 -132 0
-23 -133 0
-23 -134 0
-23 -135 0
-23 -136 0
-27 -42 0
-27 -75 0
-27 -91 0
-27 -101 0
-27 -128 0
-27 -132 0
-27 -133 0
-27 -134 0
-27 -135 0
-27 -136 0
-42 -75 0
-42 -91 0
-42 -101 0
-42 -128 0
-42 -132 0
-42 -133 0
-42 -134 0
-42 -135 0
-42 -136 0
-75 -91 0
-75 -101 0
-75 -128 0
-75 -132 0
-75 -133 0
-75 -134 0
-75 -135 0
-75 -136 0
-91 -101 0
-91 -128 0
-91 -132 0
-91 -133 0
-91 -134 0
-91 -135 0
-91 -136 0
-101 -128 0
-101 -132 0
-101 -133 0
-101 -134 0
-101 -135 0
-101 -136 0
-128 -132 0
-128 -133 0
-128 -134 0
-128 -135 0
-128 -136 0
-132 -133 0
-132 -134 0
-132 -135 0
-132 -136 0
-133 -134 0
-133 -135 0
-133 -136 0
-134 -135 0
-134 -136 0
-135 -136 0
23 27 42 75 91 101 128 132 133 134 135 136 0
-15 -28 0
-15 -129 0
-15 -137 0
-15 -138 0
-28 -129 0
-28 -137 0
-28 -138 0
-129 -137 0
-129 -138 0
-137 -138 0
15 28 129 137 138 0
-37 -97 0
-37 -102 0
-37 -109 0
-37 -123 0
-37 -137 0
-37 -139 0
-37 -140 0
-37 -141 0
-97 -102 0
-97 -109 0
-97 -123 0
-97 -137 0
-97 -139 0
-97 -140 0
-97 -141 0
-102 -109 0
-102 -123 0
-102 -137 0
-102 -139 0
-102 -140 0
-102 -141 0
-109 -123 0
-109 -137 0
-109 -139 0
-109 -140 0
-109 -141 0
-123 -137 0
-123 -139 0
-123 -140 0
-123 -141 0
-137 -139 0
-137 -140 0
-137 -141 0
-139 -140 0
-139 -141 0
-140 -141 0
37 97 102 109 123 137 139 140 141 0
-16 -43 0
-16 -92 0
-16 -142 0
-16 -143 0
-16 -144 0
-43 -92 0
-43 -142 0
-43 -143 0
-43 -144 0
-92 -142 0
-92 -143 0
-92 -144 0
-142 -143 0
-142 -144 0
-143 -144 0
16 43 92 142 143 144 0
-10 -76 0
-10 -98 0
-10 -114 0
-10 -130 0
-10 -132 0
-10 -145 0
-10 -146 0
-10 -147 0
-76 -98 0
-76 -114 0
-76 -130 0
-76 -132 0
-76 -145 0
-76 -146 0
-76 -147 0
-98 -114 0
-98 -130 0
-98 -132 0
-98 -145 0
-98 -146 0
-98 -147 0
-114 -130 0
-114 -132 0
-114 -145 0
-114 -146 0
-114 -147 0
-130 -132 0
-130 -145 0
-130 -146 0
-130 -147 0
-132 -145 0
-132 -146 0
-132 -147 0
-145 -146 0
-145 -147 0
-146 -147 0
10 76 98 114 130 132 145 146 147 0
-17 -40 0
-17 -103 0
-17 -120 0
-17 -124 0
-17 -148 0
-40 -103 0
-40 -120 0
-40 -124 0
-40 -148 0
-103 -120 0
-103 -124 0
-103 -148 0
-120 -124 0
-120 -148 0
-124 -148 0
17 40 103 120 124 148 0
-29 -53 0
-29 -110 0
-29 -115 0
-29 -133 0
-29 -142 0
-29 -149 0
-53 -110 0
-53 -115 0
-53 -133 0
-53 -142 0
-53 -149 0
-110 -115 0
-110 -133 0
-110 -142 0
-110 -149 0
-115 -133 0
-115 -142 0
-115 -149 0
-133 -142 0
-133 -149 0
-142 -149 0
29 53 110 115 133 142 149 0
-18 -54 0
-18 -104 0
-18 -111 0
-18 -121 0
-18 -139 0
-18 -150 0
-18 -151 0
-18 -152 0
-18 -153 0
-18 -154 0
-54 -104 0
-54 -111 0
-54 -121 0
-54 -139 0
-54 -150 0
-54 -151 0
-54 -152 0
-54 -153 0
-54 -154 0
-104 -111 0
-104 -121 0
-104 -139 0
-104 -150 0
-104 -151 0
-104 -152 0
-104 -153 0
-104 -154 0
-111 -121 0
-111 -139 0
-111 -150 0
-111 -151 0
-111 -152 0
-111 -153 0
-111 -154 0
-121 -139 0
-121 -150 0
-121 -151 0
-121 -152 0
-121 -153 0
-121 -154 0
-139 -150 0
-139 -151 0
-139 -152 0
-139 -153 0
-139 -154 0
-150 -151 0
-150 -152 0
-150 -153 0
-150 -154 0
-151 -152 0
-151 -153 0
-151 -154 0
-152 -153 0
-152 -154 0
-153 -154 0
18 54 104 111 121 139 150 151 152 153 154 0
-44 -55 0
-44 -67 0
-44 -73 0
-44 -77 0
-44 -85 0
-44 -99 0
-44 -105 0
-44 -150 0
-44 -155 0
-55 -67 0
-55 -73 0
-55 -77 0
-55 -85 0
-55 -99 0
-55 -105 0
-55 -150 0
-55 -155 0
-67 -73 0
-67 -77 0
-67 -85 0
-67 -99 0
-67 -105 0
-67 -150 0
-67 -155 0
-73 -77 0
-73 -85 0
-73 -99 0
-73 -105 0
-73 -150 0
-73 -155 0
-77 -85 0
-77 -99 0
-77 -105 0
-77 -150 0
-77 -155 0
-85 -99 0
-85 -105 0
-85 -150 0
-85 -155 0
-99 -105 0
-99 -150 0
-99 -155 0
-105 -150 0
-105 -155 0
-150 -155 0
44 55 67 73 77 85 99 105 150 155 0
-19 -56 0
-19 -78 0
-19 -93 0
-19 -100 0
-19 -117 0
-19 -125 0
-19 -134 0
-19 -145 0
-19 -151 0
-19 -156 0
-19 -157 0
-56 -78 0
-56 -93 0
-56 -100 0
-56 -117 0
-56 -125 0
-56 -134 0
-56 -145 0
-56 -151 0
-56 -156 0
-56 -157 0
-78 -93 0
-78 -100 0
-78 -117 0
-78 -125 0
-78 -134 0
-78 -145 0
-78 -151 0
-78 -156 0
-78 -157 0
-93 -100 0
-93 -117 0
-93 -125 0
-93 -134 0
-93 -145 0
-93 -151 0
-93 -156 0
-93 -157 0
-100 -117 0
-100 -125 0
-100 -134 0
-100 -145 0
-100 -151 0
-100 -156 0
-100 -157 0
-117 -125 0
-117 -134 0
-117 -145 0
-117 -151 0
-117 -156 0
-117 -157 0
-125 -134 0
-125 -145 0
-125 -151 0
-125 -156 0
-125 -157 0
-134 -145 0
-134 -151 0
-134 -156 0
-134 -157 0
-145 -151 0
-145 -156 0
-145 -157 0
-151 -156 0
-151 -157 0
-156 -157 0
19 56 78 93 100 117 125 134 145 151 156 157 0
-11 -30 0
-11 -45 0
-11 -86 0
-11 -116 0
-11 -118 0
-11 -143 0
-11 -152 0
-11 -158 0
-30 -45 0
-30 -86 0
-30 -116 0
-30 -118 0
-30 -143 0
-30 -152 0
-30 -158 0
-45 -86 0
-45 -116 0
-45 -118 0
-45 -143 0
-45 -152 0
-45 -158 0
-86 -116 0
-86 -118 0
-86 -143 0
-86 -152 0
-86 -158 0
-116 -118 0
-116 -143 0
-116 -152 0
-116 -158 0
-118 -143 0
-118 -152 0
-118 -158 0
-143 -152 0
-143 -158 0
-152 -158 0
11 30 45 86 116 118 143 152 158 0
-46 -68 0
-46 -94 0
-46 -112 0
-46 -122 0
-46 -126 0
-46 -135 0
-46 -140 0
-46 -153 0
-46 -156 0
-46 -159 0
-68 -94 0
-68 -112 0
-68 -122 0
-68 -126 0
-68 -135 0
-68 -140 0
-68 -153 0
-68 -156 0
-68 -159 0
-94 -112 0
-94 -122 0
-94 -126 0
-94 -135 0
-94 -140 0
-94 -153 0
-94 -156 0
-94 -159 0
-112 -122 0
-112 -126 0
-112 -135 0
-112 -140 0
-112 -153 0
-112 -156 0
-112 -159 0
-122 -126 0
-122 -135 0
-122 -140 0
-122 -153 0
-122 -156 0
-122 -159 0
-126 -135 0
-126 -140 0
-126 -153 0
-126 -156 0
-126 -159 0
-135 -140 0
-135 -153 0
-135 -156 0
-135 -159 0
-140 -153 0
-140 -156 0
-140 -159 0
-153 -156 0
-153 -159 0
-156 -159 0
46 68 94 112 122 126 135 140 153 156 159 0
-20 -24 0
-20 -64 0
-20 -87 0
-20 -106 0
-20 -131 0
-20 -148 0
-20 -159 0
-24 -64 0
-24 -87 0
-24 -106 0
-24 -131 0
-24 -148 0
-24 -159 0
-64 -87 0
-64 -106 0
-64 -131 0
-64 -148 0
-64 -159 0
-87 -106 0
-87 -131 0
-87 -148 0
-87 -159 0
-106 -131 0
-106 -148 0
-106 -159 0
-131 -148 0
-131 -159 0
-148 -159 0
20 24 64 87 106 131 148 159 0
-31 -57 0
-31 -65 0
-31 -69 0
-31 -74 0
-31 -79 0
-31 -107 0
-31 -113 0
-31 -141 0
-57 -65 0
-57 -69 0
-57 -74 0
-57 -79 0
-57 -107 0
-57 -113 0
-57 -141 0
-65 -69 0
-65 -74 0
-65 -79 0
-65 -107 0
-65 -113 0
-65 -141 0
-69 -74 0
-69 -79 0
-69 -107 0
-69 -113 0
-69 -141 0
-74 -79 0
-74 -107 0
-74 -113 0
-74 -141 0
-79 -107 0
-79 -113 0
-79 -141 0
-107 -113 0
-107 -141 0
-113 -141 0
31 57 65 69 74 79 107 113 141 0
-6 -95 0
-6 -108 0
-6 -144 0
-6 -146 0
-6 -154 0
-6 -160 0
-95 -108 0
-95 -144 0
-95 -146 0
-95 -154 0
-95 -160 0
-108 -144 0
-108 -146 0
-108 -154 0
-108 -160 0
-144 -146 0
-144 -154 0
-144 -160 0
-146 -154 0
-146 -160 0
-154 -160 0
6 95 108 144 146 154 160 0
-32 -127 0
-32 -136 0
-32 -149 0
-32 -155 0
-32 -157 0
-32 -158 0
-127 -136 0
-127 -149 0
-127 -155 0
-127 -157 0
-127 -158 0
-136 -149 0
-136 -155 0
-136 -157 0
-136 -158 0
-149 -155 0
-149 -157 0
-149 -158 0
-155 -157 0
-155 -158 0
-157 -158 0
32 127 136 149 155 157 158 0
-80 -138 0
-80 -147 0
-80 -160 0
-138 -147 0
-138 -160 0
-147 -160 0
80 138 147 160 0